============================[ Problem Statistics ]=============================|                                                                             ||  Number of variables:          4242                                         ||  Number of clauses:           10459                                         ||  Parse time:                   0.84 s                                       ||                                                                             |============================[ Search Statistics ]==============================| Conflicts |          ORIGINAL         |          LEARNT          | Progress ||           |    Vars  Clauses Literals |    Limit  Clauses Lit/Cl |          |===============================================================================|       100 |    1591     6664  1349825 |     2443      100     53 | 62.501 % ||       250 |    1591     6664  1349825 |     2687      250     75 | 62.495 % |===============================================================================restarts              : 4conflicts             : 455            (357 /sec)decisions             : 814            (0.00 % random) (638 /sec)propagations          : 13756          (10789 /sec)conflict literals     : 38610          (94.45 % deleted)CPU time              : 1.275 sSATISFIABLE